trunk/Alps/examples/Knap/data/easy/input55_4.mps
NAME          input55_
ROWS
 L  R0001
 N  R0002
COLUMNS
    INT1      'MARKER'                 'INTORG'
    C0001     R0001     50
    C0001     R0002     -60
    C0002     R0001     78
    C0002     R0002     -88
    C0003     R0001     42
    C0003     R0002     -52
    C0004     R0001     9
    C0004     R0002     -19
    C0005     R0001     88
    C0005     R0002     -98
    C0006     R0001     11
    C0006     R0002     -21
    C0007     R0001     57
    C0007     R0002     -67
    C0008     R0001     83
    C0008     R0002     -93
    C0009     R0001     99
    C0009     R0002     -109
    C0010     R0001     99
    C0010     R0002     -109
    C0011     R0001     59
    C0011     R0002     -69
    C0012     R0001     2
    C0012     R0002     -12
    C0013     R0001     49
    C0013     R0002     -59
    C0014     R0001     49
    C0014     R0002     -59
    C0015     R0001     43
    C0015     R0002     -53
    C0016     R0001     53
    C0016     R0002     -63
    C0017     R0001     94
    C0017     R0002     -104
    C0018     R0001     52
    C0018     R0002     -62
    C0019     R0001     76
    C0019     R0002     -86
    C0020     R0001     67
    C0020     R0002     -77
    C0021     R0001     22
    C0021     R0002     -32
    C0022     R0001     99
    C0022     R0002     -109
    C0023     R0001     28
    C0023     R0002     -38
    C0024     R0001     28
    C0024     R0002     -38
    C0025     R0001     59
    C0025     R0002     -69
    C0026     R0001     82
    C0026     R0002     -92
    C0027     R0001     65
    C0027     R0002     -75
    C0028     R0001     54
    C0028     R0002     -64
    C0029     R0001     21
    C0029     R0002     -31
    C0030     R0001     66
    C0030     R0002     -76
    C0031     R0001     49
    C0031     R0002     -59
    C0032     R0001     70
    C0032     R0002     -80
    C0033     R0001     44
    C0033     R0002     -54
    C0034     R0001     91
    C0034     R0002     -101
    C0035     R0001     79
    C0035     R0002     -89
    C0036     R0001     32
    C0036     R0002     -42
    C0037     R0001     2
    C0037     R0002     -12
    C0038     R0001     36
    C0038     R0002     -46
    C0039     R0001     16
    C0039     R0002     -26
    C0040     R0001     2
    C0040     R0002     -12
    C0041     R0001     36
    C0041     R0002     -46
    C0042     R0001     75
    C0042     R0002     -85
    C0043     R0001     4
    C0043     R0002     -14
    C0044     R0001     85
    C0044     R0002     -95
    C0045     R0001     24
    C0045     R0002     -34
    C0046     R0001     46
    C0046     R0002     -56
    C0047     R0001     38
    C0047     R0002     -48
    C0048     R0001     19
    C0048     R0002     -29
    C0049     R0001     97
    C0049     R0002     -107
    C0050     R0001     14
    C0050     R0002     -24
    C0051     R0001     85
    C0051     R0002     -95
    C0052     R0001     20
    C0052     R0002     -30
    C0053     R0001     13
    C0053     R0002     -23
    C0054     R0001     14
    C0054     R0002     -24
    C0055     R0001     48
    C0055     R0002     -58
    INT1END   'MARKER'                 'INTEND'
RHS
    B         R0001     1715
BOUNDS
 UP BOUND     C0001     1
 UP BOUND     C0002     1
 UP BOUND     C0003     1
 UP BOUND     C0004     1
 UP BOUND     C0005     1
 UP BOUND     C0006     1
 UP BOUND     C0007     1
 UP BOUND     C0008     1
 UP BOUND     C0009     1
 UP BOUND     C0010     1
 UP BOUND     C0011     1
 UP BOUND     C0012     1
 UP BOUND     C0013     1
 UP BOUND     C0014     1
 UP BOUND     C0015     1
 UP BOUND     C0016     1
 UP BOUND     C0017     1
 UP BOUND     C0018     1
 UP BOUND     C0019     1
 UP BOUND     C0020     1
 UP BOUND     C0021     1
 UP BOUND     C0022     1
 UP BOUND     C0023     1
 UP BOUND     C0024     1
 UP BOUND     C0025     1
 UP BOUND     C0026     1
 UP BOUND     C0027     1
 UP BOUND     C0028     1
 UP BOUND     C0029     1
 UP BOUND     C0030     1
 UP BOUND     C0031     1
 UP BOUND     C0032     1
 UP BOUND     C0033     1
 UP BOUND     C0034     1
 UP BOUND     C0035     1
 UP BOUND     C0036     1
 UP BOUND     C0037     1
 UP BOUND     C0038     1
 UP BOUND     C0039     1
 UP BOUND     C0040     1
 UP BOUND     C0041     1
 UP BOUND     C0042     1
 UP BOUND     C0043     1
 UP BOUND     C0044     1
 UP BOUND     C0045     1
 UP BOUND     C0046     1
 UP BOUND     C0047     1
 UP BOUND     C0048     1
 UP BOUND     C0049     1
 UP BOUND     C0050     1
 UP BOUND     C0051     1
 UP BOUND     C0052     1
 UP BOUND     C0053     1
 UP BOUND     C0054     1
 UP BOUND     C0055     1
ENDATA
