examples/Knap/data/easy/input55_4.txt
ITEM 50 60
ITEM 78 88
ITEM 42 52
ITEM 9 19
ITEM 88 98
ITEM 11 21
ITEM 57 67
ITEM 83 93
ITEM 99 109
ITEM 99 109
ITEM 59 69
ITEM 2 12
ITEM 49 59
ITEM 49 59
ITEM 43 53
ITEM 53 63
ITEM 94 104
ITEM 52 62
ITEM 76 86
ITEM 67 77
ITEM 22 32
ITEM 99 109
ITEM 28 38
ITEM 28 38
ITEM 59 69
ITEM 82 92
ITEM 65 75
ITEM 54 64
ITEM 21 31
ITEM 66 76
ITEM 49 59
ITEM 70 80
ITEM 44 54
ITEM 91 101
ITEM 79 89
ITEM 32 42
ITEM 2 12
ITEM 36 46
ITEM 16 26
ITEM 2 12
ITEM 36 46
ITEM 75 85
ITEM 4 14
ITEM 85 95
ITEM 24 34
ITEM 46 56
ITEM 38 48
ITEM 19 29
ITEM 97 107
ITEM 14 24
ITEM 85 95
ITEM 20 30
ITEM 13 23
ITEM 14 24
ITEM 48 58
CAPACITY 1715
